NAME          toto
ROWS
 E  R0001
 E  R0002
 E  R0003
 E  R0004
 E  R0005
 E  R0006
 E  R0007
 E  R0008
 E  R0009
 E  R0010
 E  R0011
 E  R0012
 E  R0013
 E  R0014
 E  R0015
 E  R0016
 E  R0017
 E  R0018
 N  R0019
COLUMNS
    C0001     R0001     1
    C0002     R0002     1
    C0003     R0003     1
    C0004     R0004     1
    C0005     R0005     1
    C0006     R0006     1
    C0007     R0007     1
    C0008     R0008     1
    C0009     R0009     1
    C0010     R0010     1
    C0011     R0011     1
    C0012     R0012     1
    C0013     R0013     1
    C0014     R0014     1
    C0015     R0015     1
    C0016     R0016     1
    C0017     R0017     1
    C0018     R0018     1
    C0019     R0001     1
    C0019     R0002     1
    C0019     R0003     1
    C0019     R0004     1
    C0019     R0005     1
    C0019     R0006     1
    C0019     R0007     1
    C0019     R0008     1
    C0019     R0009     1
    C0019     R0010     1
    C0019     R0011     1
    C0019     R0012     1
    C0019     R0013     1
    C0019     R0014     1
    C0019     R0015     1
    C0019     R0016     1
    C0019     R0017     1
    C0019     R0018     1
RHS
    B         R0001     1
    B         R0002     1
    B         R0003     1
    B         R0004     1
    B         R0005     1
    B         R0006     1
    B         R0007     1
    B         R0008     1
    B         R0009     1
    B         R0010     1
    B         R0011     1
    B         R0012     1
    B         R0013     1
    B         R0014     1
    B         R0015     1
    B         R0016     1
    B         R0017     1
    B         R0018     1
ENDATA
